3 3 2
20 1 53 0 85 1 80 2 54 0 28 1 6 0 32 1 88 0 95 2 88 1 67 0 8 2 37 1 82 0 45 2 15 0 35 2 13 0 96 2 29 
20 0 32 1 28 0 89 2 6 1 88 0 28 1 64 2 51 0 92 1 64 0 97 2 77 0 41 2 65 1 52 0 33 2 27 0 31 1 20 2 15 
20 1 80 2 98 0 27 1 7 2 9 1 92 0 38 1 50 0 84 2 26 1 40 0 24 1 6 2 72 0 18 1 94 2 39 0 37 2 28 0 92 

-------------
